language Essence 1.3

letting course_load be
        function(1 --> 1, 2 --> 10, 3 --> 2, 4 --> 5, 5 --> 4, 6 --> 4, 7 --> 1, 8 --> 15, 9 --> 18, 10 --> 1, 11 --> 8,
                 12 --> 13, 13 --> 4, 14 --> 15, 15 --> 8, 16 --> 9, 17 --> 10, 18 --> 17, 19 --> 5, 20 --> 16,
                 21 --> 16, 22 --> 7, 23 --> 3, 24 --> 9, 25 --> 16, 26 --> 13, 27 --> 10, 28 --> 19, 29 --> 12,
                 30 --> 12, 31 --> 17, 32 --> 6, 33 --> 9, 34 --> 6, 35 --> 4, 36 --> 19, 37 --> 4, 38 --> 6, 39 --> 14,
                 40 --> 8, 41 --> 4, 42 --> 19, 43 --> 16, 44 --> 19, 45 --> 19, 46 --> 2, 47 --> 16, 48 --> 12,
                 49 --> 10, 50 --> 14)
letting courses_per_period_lb be 3
letting courses_per_period_ub be 8
letting load_per_period_lb be 8
letting load_per_period_ub be 34
letting n_courses be 50
letting n_periods be 15
letting prerequisite be
        relation((1, 40), (1, 41), (1, 42), (1, 43), (1, 44), (1, 45), (1, 46), (1, 47), (1, 48), (1, 49), (1, 50),
                 (2, 40), (2, 41), (2, 42), (2, 43), (2, 44), (2, 45), (2, 46), (2, 47), (2, 48), (2, 49), (2, 50),
                 (3, 40), (3, 41), (3, 42), (3, 43), (3, 44), (3, 45), (3, 47), (3, 48), (3, 49), (3, 50), (4, 40),
                 (4, 41), (4, 42), (4, 43), (4, 44), (4, 45), (4, 46), (4, 47), (4, 48), (4, 49), (4, 50), (5, 40),
                 (5, 41), (5, 42), (5, 43), (5, 44), (5, 45), (5, 46), (5, 47), (5, 48), (5, 49), (5, 50), (6, 40),
                 (6, 41), (6, 42), (6, 43), (6, 44), (6, 45), (6, 46), (6, 47), (6, 48), (6, 49), (6, 50), (7, 40),
                 (7, 41), (7, 42), (7, 43), (7, 44), (7, 45), (7, 46), (7, 47), (7, 48), (7, 49), (7, 50), (8, 40),
                 (8, 41), (8, 42), (8, 43), (8, 44), (8, 45), (8, 46), (8, 47), (8, 48), (8, 49), (8, 50), (9, 40),
                 (9, 41), (9, 42), (9, 43), (9, 44), (9, 45), (9, 46), (9, 47), (9, 48), (9, 49), (9, 50), (10, 40),
                 (10, 41), (10, 42), (10, 43), (10, 44), (10, 45), (10, 46), (10, 47), (10, 48), (10, 49), (10, 50),
                 (11, 40), (11, 41), (11, 42), (11, 43), (11, 44), (11, 45), (11, 46), (11, 47), (11, 48), (11, 49),
                 (11, 50), (12, 40), (12, 41), (12, 43), (12, 44), (12, 45), (12, 46), (12, 47), (12, 48), (12, 49),
                 (12, 50), (13, 40), (13, 41), (13, 42), (13, 43), (13, 44), (13, 45), (13, 46), (13, 47), (13, 48),
                 (13, 49), (13, 50), (14, 40), (14, 41), (14, 42), (14, 43), (14, 44), (14, 45), (14, 46), (14, 47),
                 (14, 48), (14, 49), (14, 50), (15, 40), (15, 41), (15, 42), (15, 43), (15, 44), (15, 45), (15, 46),
                 (15, 47), (15, 48), (15, 49), (15, 50), (16, 40), (16, 41), (16, 42), (16, 43), (16, 44), (16, 45),
                 (16, 46), (16, 47), (16, 48), (16, 49), (16, 50), (17, 40), (17, 41), (17, 42), (17, 43), (17, 44),
                 (17, 45), (17, 46), (17, 47), (17, 48), (17, 49), (17, 50), (18, 40), (18, 41), (18, 42), (18, 43),
                 (18, 44), (18, 45), (18, 46), (18, 47), (18, 48), (18, 49), (18, 50), (19, 40), (19, 41), (19, 42),
                 (19, 43), (19, 44), (19, 45), (19, 46), (19, 47), (19, 48), (19, 49), (19, 50), (20, 40), (20, 41),
                 (20, 42), (20, 43), (20, 44), (20, 45), (20, 46), (20, 47), (20, 48), (20, 49), (20, 50), (21, 40),
                 (21, 41), (21, 42), (21, 43), (21, 44), (21, 45), (21, 46), (21, 47), (21, 48), (21, 49), (21, 50),
                 (22, 40), (22, 41), (22, 42), (22, 43), (22, 44), (22, 45), (22, 46), (22, 47), (22, 48), (22, 49),
                 (22, 50), (23, 40), (23, 41), (23, 42), (23, 43), (23, 44), (23, 45), (23, 46), (23, 47), (23, 48),
                 (23, 49), (23, 50), (24, 40), (24, 41), (24, 42), (24, 43), (24, 44), (24, 45), (24, 46), (24, 47),
                 (24, 48), (24, 49), (24, 50), (25, 40), (25, 41), (25, 42), (25, 43), (25, 44), (25, 45), (25, 46),
                 (25, 47), (25, 48), (25, 49), (25, 50))
$ Visualisation for prerequisite
$  1 40
$  1 41
$  1 42
$  1 43
$  1 44
$  1 45
$  1 46
$  1 47
$  1 48
$  1 49
$  1 50
$  2 40
$  2 41
$  2 42
$  2 43
$  2 44
$  2 45
$  2 46
$  2 47
$  2 48
$  2 49
$  2 50
$  3 40
$  3 41
$  3 42
$  3 43
$  3 44
$  3 45
$  3 47
$  3 48
$  3 49
$  3 50
$  4 40
$  4 41
$  4 42
$  4 43
$  4 44
$  4 45
$  4 46
$  4 47
$  4 48
$  4 49
$  4 50
$  5 40
$  5 41
$  5 42
$  5 43
$  5 44
$  5 45
$  5 46
$  5 47
$  5 48
$  5 49
$  5 50
$  6 40
$  6 41
$  6 42
$  6 43
$  6 44
$  6 45
$  6 46
$  6 47
$  6 48
$  6 49
$  6 50
$  7 40
$  7 41
$  7 42
$  7 43
$  7 44
$  7 45
$  7 46
$  7 47
$  7 48
$  7 49
$  7 50
$  8 40
$  8 41
$  8 42
$  8 43
$  8 44
$  8 45
$  8 46
$  8 47
$  8 48
$  8 49
$  8 50
$  9 40
$  9 41
$  9 42
$  9 43
$  9 44
$  9 45
$  9 46
$  9 47
$  9 48
$  9 49
$  9 50
$ 10 40
$ 10 41
$ 10 42
$ 10 43
$ 10 44
$ 10 45
$ 10 46
$ 10 47
$ 10 48
$ 10 49
$ 10 50
$ 11 40
$ 11 41
$ 11 42
$ 11 43
$ 11 44
$ 11 45
$ 11 46
$ 11 47
$ 11 48
$ 11 49
$ 11 50
$ 12 40
$ 12 41
$ 12 43
$ 12 44
$ 12 45
$ 12 46
$ 12 47
$ 12 48
$ 12 49
$ 12 50
$ 13 40
$ 13 41
$ 13 42
$ 13 43
$ 13 44
$ 13 45
$ 13 46
$ 13 47
$ 13 48
$ 13 49
$ 13 50
$ 14 40
$ 14 41
$ 14 42
$ 14 43
$ 14 44
$ 14 45
$ 14 46
$ 14 47
$ 14 48
$ 14 49
$ 14 50
$ 15 40
$ 15 41
$ 15 42
$ 15 43
$ 15 44
$ 15 45
$ 15 46
$ 15 47
$ 15 48
$ 15 49
$ 15 50
$ 16 40
$ 16 41
$ 16 42
$ 16 43
$ 16 44
$ 16 45
$ 16 46
$ 16 47
$ 16 48
$ 16 49
$ 16 50
$ 17 40
$ 17 41
$ 17 42
$ 17 43
$ 17 44
$ 17 45
$ 17 46
$ 17 47
$ 17 48
$ 17 49
$ 17 50
$ 18 40
$ 18 41
$ 18 42
$ 18 43
$ 18 44
$ 18 45
$ 18 46
$ 18 47
$ 18 48
$ 18 49
$ 18 50
$ 19 40
$ 19 41
$ 19 42
$ 19 43
$ 19 44
$ 19 45
$ 19 46
$ 19 47
$ 19 48
$ 19 49
$ 19 50
$ 20 40
$ 20 41
$ 20 42
$ 20 43
$ 20 44
$ 20 45
$ 20 46
$ 20 47
$ 20 48
$ 20 49
$ 20 50
$ 21 40
$ 21 41
$ 21 42
$ 21 43
$ 21 44
$ 21 45
$ 21 46
$ 21 47
$ 21 48
$ 21 49
$ 21 50
$ 22 40
$ 22 41
$ 22 42
$ 22 43
$ 22 44
$ 22 45
$ 22 46
$ 22 47
$ 22 48
$ 22 49
$ 22 50
$ 23 40
$ 23 41
$ 23 42
$ 23 43
$ 23 44
$ 23 45
$ 23 46
$ 23 47
$ 23 48
$ 23 49
$ 23 50
$ 24 40
$ 24 41
$ 24 42
$ 24 43
$ 24 44
$ 24 45
$ 24 46
$ 24 47
$ 24 48
$ 24 49
$ 24 50
$ 25 40
$ 25 41
$ 25 42
$ 25 43
$ 25 44
$ 25 45
$ 25 46
$ 25 47
$ 25 48
$ 25 49
$ 25 50

